p cnf 20 11
e 1 0
a 2 0
e 3 4 0
a 5 0
e 6 7 0
a 8 9 10 0
e 11 0
a 12 13 0
e 14 15 16 0
a 17 0
e 18 0
a 19 20 0
-2 -16 -11 -13 20 0
20 -16 -19 0
-1 -19 -17 8 0
-10 1 20 8 0
15 9 -11 0
-11 13 -6 -8 0
-6 4 0
-3 9 10 -11 -1 0
-18 -4 11 -20 17 0
-4 1 -19 -16 14 0
6 14 1 0
